c turning on binary mode checking
c parsing input formula with 259840 variables and 1039929 clauses
c finished parsing, read 23843011 bytes from proof file
c detected empty clause; start verification via backward checking
c 24814 of 1039929 clauses in core                            
c 31607 of 606679 lemmas in core using 264358 resolution steps
c 0 RAT lemmas in core; 2710 redundant literals in core lemmas
s VERIFIED
c verification time: 3.392 seconds
